[runlim] version:		1.10
[runlim] time limit:		311040000 seconds
[runlim] real time limit:	600 seconds
[runlim] space limit:		14000 MB
[runlim] argv[0]:		python3
[runlim] argv[1]:		-u
[runlim] argv[2]:		mip.py
[runlim] argv[3]:		graph08
[runlim] start:			Tue Jan 20 19:44:10 2026
[runlim] main pid:		199624
Building MIP model...
[runlim] sample:		10.0 time, 10.5 real, 35.4 MB
[runlim] sample:		20.0 time, 20.5 real, 38.5 MB
[runlim] sample:		30.0 time, 30.5 real, 38.9 MB
[runlim] sample:		40.0 time, 40.5 real, 40.4 MB
[runlim] sample:		50.0 time, 50.5 real, 43.5 MB
[runlim] sample:		60.0 time, 60.5 real, 44.9 MB
[runlim] sample:		70.0 time, 70.5 real, 46.7 MB
[runlim] sample:		80.0 time, 80.5 real, 47.0 MB
[runlim] sample:		89.9 time, 90.5 real, 49.0 MB
[runlim] sample:		99.9 time, 100.5 real, 49.3 MB
[runlim] sample:		109.9 time, 110.5 real, 51.7 MB
[runlim] sample:		119.9 time, 120.5 real, 52.0 MB
Build time: 122.82s
Solving MIP (minimizing number of labels)...
Version identifier: 22.1.1.0 | 2022-11-28 | 9160aff4d
CPXPARAM_Read_DataCheck                          1
Legacy callback                                  i
Tried aggregator 2 times.
MIP Presolve eliminated 370903 rows and 4 columns.
MIP Presolve modified 39868 coefficients.
Aggregator did 12814 substitutions.
Reduced MIP has 40148 rows, 12858 columns, and 387670 nonzeros.
Reduced MIP has 12858 binaries, 0 generals, 0 SOSs, and 0 indicators.
Presolve time = 1.66 sec. (1565.65 ticks)
Probing fixed 1 vars, tightened 0 bounds.
Probing time = 0.03 sec. (10.32 ticks)
Tried aggregator 1 time.
Detecting symmetries...
MIP Presolve eliminated 0 rows and 1 columns.
MIP Presolve modified 15 coefficients.
Reduced MIP has 40147 rows, 12857 columns, and 387625 nonzeros.
Reduced MIP has 12857 binaries, 0 generals, 0 SOSs, and 0 indicators.
Presolve time = 0.43 sec. (420.92 ticks)
Probing time = 0.02 sec. (5.41 ticks)
Clique table members: 44473.
MIP emphasis: balance optimality and feasibility.
MIP search method: dynamic search.
Parallel mode: deterministic, using up to 12 threads.
[runlim] sample:		146.2 time, 130.5 real, 512.8 MB
Root relaxation solution time = 9.16 sec. (6010.83 ticks)

        Nodes                                         Cuts/
   Node  Left     Objective  IInf  Best Integer    Best Bound    ItCnt     Gap

*     0+    0                           28.0000        0.0000           100.00%
      0     0       18.0000  1044       28.0000       18.0000    12961   35.71%

========== NEW INCUMBENT SOLUTION ==========
{1: 16, 2: 254, 3: 380, 4: 142, 5: 554, 6: 792, 7: 58, 8: 296, 9: 16, 10: 254, 11: 170, 12: 408, 13: 240, 14: 478, 15: 338, 16: 100, 17: 414, 18: 652, 19: 792, 20: 554, 21: 554, 22: 792, 23: 338, 24: 100, 25: 16, 26: 254, 27: 254, 28: 16, 29: 338, 30: 100, 31: 380, 32: 142, 33: 380, 34: 142, 35: 750, 36: 512, 37: 408, 38: 170, 39: 792, 40: 554, 41: 442, 42: 680, 43: 254, 44: 16, 45: 792, 46: 554, 47: 142, 48: 380, 49: 254, 50: 16, 51: 408, 52: 170, 53: 750, 54: 512, 55: 470, 56: 708, 57: 58, 58: 296, 59: 142, 60: 380, 61: 338, 62: 100, 63: 338, 64: 100, 65: 142, 66: 380, 67: 554, 68: 792, 69: 512, 70: 750, 71: 338, 72: 100, 73: 100, 74: 338, 75: 338, 76: 100, 77: 554, 78: 792, 79: 792, 80: 554, 81: 750, 82: 512, 83: 338, 84: 100, 85: 792, 86: 554, 87: 142, 88: 380, 89: 380, 90: 142, 91: 554, 92: 792, 93: 526, 94: 764, 95: 338, 96: 100, 97: 792, 98: 554, 99: 792, 100: 554, 101: 792, 102: 554, 103: 708, 104: 470, 105: 554, 106: 792, 107: 554, 108: 792, 109: 554, 110: 792, 111: 100, 112: 338, 113: 792, 114: 554, 115: 750, 116: 512, 117: 408, 118: 170, 119: 554, 120: 792, 121: 100, 122: 338, 123: 512, 124: 750, 125: 380, 126: 142, 127: 512, 128: 750, 129: 170, 130: 408, 131: 792, 132: 554, 133: 142, 134: 380, 135: 100, 136: 338, 137: 478, 138: 240, 139: 338, 140: 100, 141: 128, 142: 366, 143: 554, 144: 792, 145: 554, 146: 792, 147: 142, 148: 380, 149: 470, 150: 708, 151: 750, 152: 512, 153: 16, 154: 254, 155: 750, 156: 512, 157: 792, 158: 554, 159: 414, 160: 652, 161: 100, 162: 338, 163: 16, 164: 254, 165: 792, 166: 554, 167: 442, 168: 680, 169: 100, 170: 338, 171: 708, 172: 470, 173: 268, 174: 30, 175: 100, 176: 338, 177: 792, 178: 554, 179: 100, 180: 338, 181: 100, 182: 338, 183: 142, 184: 380, 185: 708, 186: 470, 187: 100, 188: 338, 189: 554, 190: 792, 191: 750, 192: 512, 193: 338, 194: 100, 195: 708, 196: 470, 197: 142, 198: 380, 199: 680, 200: 442, 201: 792, 202: 554, 203: 380, 204: 142, 205: 142, 206: 380, 207: 100, 208: 338, 209: 708, 210: 470, 211: 142, 212: 380, 213: 58, 214: 296, 215: 296, 216: 58, 217: 380, 218: 142, 219: 512, 220: 750, 221: 338, 222: 100, 223: 58, 224: 296, 225: 58, 226: 296, 227: 380, 228: 142, 229: 470, 230: 708, 231: 16, 232: 254, 233: 100, 234: 338, 235: 254, 236: 16, 237: 470, 238: 708, 239: 680, 240: 442, 241: 338, 242: 100, 243: 470, 244: 708, 245: 554, 246: 792, 247: 470, 248: 708, 249: 792, 250: 554, 251: 142, 252: 380, 253: 170, 254: 408, 255: 554, 256: 792, 257: 100, 258: 338, 259: 268, 260: 30, 261: 512, 262: 750, 263: 142, 264: 380, 265: 380, 266: 142, 267: 296, 268: 58, 269: 554, 270: 792, 271: 142, 272: 380, 273: 554, 274: 792, 275: 792, 276: 554, 277: 100, 278: 338, 279: 100, 280: 338, 281: 554, 282: 792, 283: 100, 284: 338, 285: 16, 286: 254, 287: 58, 288: 296, 289: 708, 290: 470, 291: 708, 292: 470, 293: 142, 294: 380, 295: 338, 296: 100, 297: 708, 298: 470, 299: 100, 300: 338, 301: 792, 302: 554, 303: 554, 304: 792, 305: 792, 306: 554, 307: 554, 308: 792, 309: 554, 310: 792, 311: 526, 312: 764, 313: 170, 314: 408, 315: 268, 316: 30, 317: 58, 318: 296, 319: 170, 320: 408, 321: 680, 322: 442, 323: 100, 324: 338, 325: 142, 326: 380, 327: 380, 328: 142, 329: 254, 330: 16, 331: 408, 332: 170, 333: 750, 334: 512, 335: 512, 336: 750, 337: 240, 338: 478, 339: 142, 340: 380, 341: 554, 342: 792, 343: 478, 344: 240, 345: 380, 346: 142, 347: 100, 348: 338, 349: 380, 350: 142, 351: 142, 352: 380, 353: 58, 354: 296, 355: 254, 356: 16, 357: 380, 358: 142, 359: 408, 360: 170, 361: 100, 362: 338, 363: 792, 364: 554, 365: 792, 366: 554, 367: 100, 368: 338, 369: 338, 370: 100, 371: 170, 372: 408, 373: 408, 374: 170, 375: 254, 376: 16, 377: 142, 378: 380, 379: 792, 380: 554, 381: 142, 382: 380, 383: 554, 384: 792, 385: 792, 386: 554, 387: 708, 388: 470, 389: 680, 390: 442, 391: 512, 392: 750, 393: 442, 394: 680, 395: 100, 396: 338, 397: 338, 398: 100, 399: 100, 400: 338, 401: 414, 402: 652, 403: 750, 404: 512, 405: 380, 406: 142, 407: 142, 408: 380, 409: 100, 410: 338, 411: 554, 412: 792, 413: 142, 414: 380, 415: 554, 416: 792, 417: 554, 418: 792, 419: 30, 420: 268, 421: 170, 422: 408, 423: 792, 424: 554, 425: 750, 426: 512, 427: 16, 428: 254, 429: 414, 430: 652, 431: 750, 432: 512, 433: 142, 434: 380, 435: 16, 436: 254, 437: 792, 438: 554, 439: 792, 440: 554, 441: 100, 442: 338, 443: 142, 444: 380, 445: 470, 446: 708, 447: 708, 448: 470, 449: 338, 450: 100, 451: 380, 452: 142, 453: 442, 454: 680, 455: 554, 456: 792, 457: 442, 458: 680, 459: 708, 460: 470, 461: 100, 462: 338, 463: 764, 464: 526, 465: 526, 466: 764, 467: 338, 468: 100, 469: 554, 470: 792, 471: 142, 472: 380, 473: 240, 474: 478, 475: 442, 476: 680, 477: 408, 478: 170, 479: 764, 480: 526, 481: 338, 482: 100, 483: 708, 484: 470, 485: 680, 486: 442, 487: 470, 488: 708, 489: 680, 490: 442, 491: 338, 492: 100, 493: 142, 494: 380, 495: 16, 496: 254, 497: 470, 498: 708, 499: 680, 500: 442, 501: 414, 502: 652, 503: 792, 504: 554, 505: 58, 506: 296, 507: 470, 508: 708, 509: 512, 510: 750, 511: 128, 512: 366, 513: 380, 514: 142, 515: 16, 516: 254, 517: 16, 518: 254, 519: 338, 520: 100, 521: 554, 522: 792, 523: 58, 524: 296, 525: 470, 526: 708, 527: 100, 528: 338, 529: 792, 530: 554, 531: 792, 532: 554, 533: 240, 534: 478, 535: 792, 536: 554, 537: 750, 538: 512, 539: 554, 540: 792, 541: 366, 542: 128, 543: 512, 544: 750, 545: 58, 546: 296, 547: 554, 548: 792, 549: 512, 550: 750, 551: 792, 552: 554, 553: 554, 554: 792, 555: 554, 556: 792, 557: 380, 558: 142, 559: 526, 560: 764, 561: 512, 562: 750, 563: 58, 564: 296, 565: 708, 566: 470, 567: 296, 568: 58, 569: 442, 570: 680, 571: 142, 572: 380, 573: 792, 574: 554, 575: 254, 576: 16, 577: 708, 578: 470, 579: 380, 580: 142, 581: 512, 582: 750, 583: 16, 584: 254, 585: 414, 586: 652, 587: 380, 588: 142, 589: 708, 590: 470, 591: 16, 592: 254, 593: 380, 594: 142, 595: 142, 596: 380, 597: 554, 598: 792, 599: 338, 600: 100, 601: 16, 602: 254, 603: 142, 604: 380, 605: 708, 606: 470, 607: 470, 608: 708, 609: 554, 610: 792, 611: 16, 612: 254, 613: 708, 614: 470, 615: 408, 616: 170, 617: 408, 618: 170, 619: 100, 620: 338, 621: 554, 622: 792, 623: 268, 624: 30, 625: 170, 626: 408, 627: 380, 628: 142, 629: 680, 630: 442, 631: 16, 632: 254, 633: 338, 634: 100, 635: 268, 636: 30, 637: 296, 638: 58, 639: 58, 640: 296, 641: 254, 642: 16, 643: 554, 644: 792, 645: 338, 646: 100, 647: 750, 648: 512, 649: 16, 650: 254, 651: 142, 652: 380, 653: 142, 654: 380, 655: 338, 656: 100, 657: 512, 658: 750, 659: 554, 660: 792, 661: 470, 662: 708, 663: 142, 664: 380, 665: 554, 666: 792, 667: 554, 668: 792, 669: 792, 670: 554, 671: 554, 672: 792, 673: 58, 674: 296, 675: 652, 676: 414, 677: 708, 678: 470, 679: 142, 680: 380}
Number of labels used: 28
Total time: 134.85 sec
Memory: 517.36 MB
=============================================

========== NEW INCUMBENT SOLUTION ==========
{1: 16, 2: 254, 3: 380, 4: 142, 5: 554, 6: 792, 7: 58, 8: 296, 9: 16, 10: 254, 11: 170, 12: 408, 13: 240, 14: 478, 15: 338, 16: 100, 17: 414, 18: 652, 19: 792, 20: 554, 21: 554, 22: 792, 23: 338, 24: 100, 25: 16, 26: 254, 27: 254, 28: 16, 29: 338, 30: 100, 31: 380, 32: 142, 33: 380, 34: 142, 35: 750, 36: 512, 37: 408, 38: 170, 39: 792, 40: 554, 41: 442, 42: 680, 43: 254, 44: 16, 45: 792, 46: 554, 47: 142, 48: 380, 49: 254, 50: 16, 51: 408, 52: 170, 53: 750, 54: 512, 55: 470, 56: 708, 57: 58, 58: 296, 59: 142, 60: 380, 61: 338, 62: 100, 63: 338, 64: 100, 65: 142, 66: 380, 67: 554, 68: 792, 69: 512, 70: 750, 71: 338, 72: 100, 73: 100, 74: 338, 75: 338, 76: 100, 77: 554, 78: 792, 79: 792, 80: 554, 81: 750, 82: 512, 83: 338, 84: 100, 85: 792, 86: 554, 87: 142, 88: 380, 89: 380, 90: 142, 91: 554, 92: 792, 93: 526, 94: 764, 95: 338, 96: 100, 97: 792, 98: 554, 99: 792, 100: 554, 101: 792, 102: 554, 103: 708, 104: 470, 105: 554, 106: 792, 107: 554, 108: 792, 109: 554, 110: 792, 111: 100, 112: 338, 113: 792, 114: 554, 115: 750, 116: 512, 117: 408, 118: 170, 119: 554, 120: 792, 121: 100, 122: 338, 123: 512, 124: 750, 125: 380, 126: 142, 127: 512, 128: 750, 129: 170, 130: 408, 131: 792, 132: 554, 133: 142, 134: 380, 135: 100, 136: 338, 137: 478, 138: 240, 139: 338, 140: 100, 141: 128, 142: 366, 143: 554, 144: 792, 145: 554, 146: 792, 147: 142, 148: 380, 149: 470, 150: 708, 151: 750, 152: 512, 153: 16, 154: 254, 155: 750, 156: 512, 157: 792, 158: 554, 159: 414, 160: 652, 161: 100, 162: 338, 163: 16, 164: 254, 165: 792, 166: 554, 167: 442, 168: 680, 169: 100, 170: 338, 171: 708, 172: 470, 173: 268, 174: 30, 175: 100, 176: 338, 177: 792, 178: 554, 179: 100, 180: 338, 181: 100, 182: 338, 183: 142, 184: 380, 185: 708, 186: 470, 187: 100, 188: 338, 189: 554, 190: 792, 191: 750, 192: 512, 193: 338, 194: 100, 195: 708, 196: 470, 197: 142, 198: 380, 199: 680, 200: 442, 201: 792, 202: 554, 203: 380, 204: 142, 205: 142, 206: 380, 207: 100, 208: 338, 209: 708, 210: 470, 211: 142, 212: 380, 213: 58, 214: 296, 215: 296, 216: 58, 217: 380, 218: 142, 219: 512, 220: 750, 221: 338, 222: 100, 223: 58, 224: 296, 225: 58, 226: 296, 227: 380, 228: 142, 229: 470, 230: 708, 231: 16, 232: 254, 233: 100, 234: 338, 235: 254, 236: 16, 237: 470, 238: 708, 239: 680, 240: 442, 241: 338, 242: 100, 243: 470, 244: 708, 245: 554, 246: 792, 247: 470, 248: 708, 249: 792, 250: 554, 251: 142, 252: 380, 253: 170, 254: 408, 255: 554, 256: 792, 257: 100, 258: 338, 259: 268, 260: 30, 261: 512, 262: 750, 263: 142, 264: 380, 265: 380, 266: 142, 267: 296, 268: 58, 269: 554, 270: 792, 271: 142, 272: 380, 273: 554, 274: 792, 275: 792, 276: 554, 277: 100, 278: 338, 279: 100, 280: 338, 281: 554, 282: 792, 283: 100, 284: 338, 285: 16, 286: 254, 287: 58, 288: 296, 289: 708, 290: 470, 291: 708, 292: 470, 293: 142, 294: 380, 295: 338, 296: 100, 297: 708, 298: 470, 299: 100, 300: 338, 301: 792, 302: 554, 303: 554, 304: 792, 305: 792, 306: 554, 307: 554, 308: 792, 309: 554, 310: 792, 311: 526, 312: 764, 313: 170, 314: 408, 315: 268, 316: 30, 317: 58, 318: 296, 319: 170, 320: 408, 321: 680, 322: 442, 323: 100, 324: 338, 325: 142, 326: 380, 327: 380, 328: 142, 329: 254, 330: 16, 331: 408, 332: 170, 333: 750, 334: 512, 335: 512, 336: 750, 337: 240, 338: 478, 339: 142, 340: 380, 341: 554, 342: 792, 343: 478, 344: 240, 345: 380, 346: 142, 347: 100, 348: 338, 349: 380, 350: 142, 351: 142, 352: 380, 353: 58, 354: 296, 355: 254, 356: 16, 357: 380, 358: 142, 359: 408, 360: 170, 361: 100, 362: 338, 363: 792, 364: 554, 365: 792, 366: 554, 367: 100, 368: 338, 369: 338, 370: 100, 371: 170, 372: 408, 373: 408, 374: 170, 375: 254, 376: 16, 377: 142, 378: 380, 379: 792, 380: 554, 381: 142, 382: 380, 383: 554, 384: 792, 385: 792, 386: 554, 387: 708, 388: 470, 389: 680, 390: 442, 391: 512, 392: 750, 393: 442, 394: 680, 395: 100, 396: 338, 397: 338, 398: 100, 399: 100, 400: 338, 401: 414, 402: 652, 403: 750, 404: 512, 405: 380, 406: 142, 407: 142, 408: 380, 409: 100, 410: 338, 411: 554, 412: 792, 413: 142, 414: 380, 415: 554, 416: 792, 417: 554, 418: 792, 419: 30, 420: 268, 421: 170, 422: 408, 423: 792, 424: 554, 425: 750, 426: 512, 427: 16, 428: 254, 429: 414, 430: 652, 431: 750, 432: 512, 433: 142, 434: 380, 435: 16, 436: 254, 437: 792, 438: 554, 439: 792, 440: 554, 441: 100, 442: 338, 443: 142, 444: 380, 445: 470, 446: 708, 447: 708, 448: 470, 449: 338, 450: 100, 451: 380, 452: 142, 453: 442, 454: 680, 455: 554, 456: 792, 457: 442, 458: 680, 459: 708, 460: 470, 461: 100, 462: 338, 463: 764, 464: 526, 465: 526, 466: 764, 467: 338, 468: 100, 469: 554, 470: 792, 471: 142, 472: 380, 473: 240, 474: 478, 475: 442, 476: 680, 477: 408, 478: 170, 479: 764, 480: 526, 481: 338, 482: 100, 483: 708, 484: 470, 485: 680, 486: 442, 487: 470, 488: 708, 489: 680, 490: 442, 491: 338, 492: 100, 493: 142, 494: 380, 495: 16, 496: 254, 497: 470, 498: 708, 499: 680, 500: 442, 501: 414, 502: 652, 503: 792, 504: 554, 505: 58, 506: 296, 507: 470, 508: 708, 509: 512, 510: 750, 511: 128, 512: 366, 513: 380, 514: 142, 515: 16, 516: 254, 517: 16, 518: 254, 519: 338, 520: 100, 521: 554, 522: 792, 523: 58, 524: 296, 525: 470, 526: 708, 527: 100, 528: 338, 529: 792, 530: 554, 531: 792, 532: 554, 533: 240, 534: 478, 535: 792, 536: 554, 537: 750, 538: 512, 539: 554, 540: 792, 541: 366, 542: 128, 543: 512, 544: 750, 545: 58, 546: 296, 547: 554, 548: 792, 549: 512, 550: 750, 551: 792, 552: 554, 553: 554, 554: 792, 555: 554, 556: 792, 557: 380, 558: 142, 559: 526, 560: 764, 561: 512, 562: 750, 563: 58, 564: 296, 565: 708, 566: 470, 567: 296, 568: 58, 569: 442, 570: 680, 571: 142, 572: 380, 573: 792, 574: 554, 575: 254, 576: 16, 577: 708, 578: 470, 579: 380, 580: 142, 581: 512, 582: 750, 583: 16, 584: 254, 585: 414, 586: 652, 587: 380, 588: 142, 589: 708, 590: 470, 591: 16, 592: 254, 593: 380, 594: 142, 595: 142, 596: 380, 597: 554, 598: 792, 599: 338, 600: 100, 601: 16, 602: 254, 603: 142, 604: 380, 605: 708, 606: 470, 607: 470, 608: 708, 609: 554, 610: 792, 611: 16, 612: 254, 613: 708, 614: 470, 615: 408, 616: 170, 617: 408, 618: 170, 619: 100, 620: 338, 621: 554, 622: 792, 623: 268, 624: 30, 625: 170, 626: 408, 627: 380, 628: 142, 629: 680, 630: 442, 631: 16, 632: 254, 633: 338, 634: 100, 635: 268, 636: 30, 637: 296, 638: 58, 639: 58, 640: 296, 641: 254, 642: 16, 643: 554, 644: 792, 645: 338, 646: 100, 647: 750, 648: 512, 649: 16, 650: 254, 651: 142, 652: 380, 653: 142, 654: 380, 655: 338, 656: 100, 657: 512, 658: 750, 659: 554, 660: 792, 661: 470, 662: 708, 663: 142, 664: 380, 665: 554, 666: 792, 667: 554, 668: 792, 669: 792, 670: 554, 671: 554, 672: 792, 673: 58, 674: 296, 675: 652, 676: 414, 677: 708, 678: 470, 679: 142, 680: 380}
Number of labels used: 28
Total time: 134.87 sec
Memory: 517.83 MB
=============================================
[runlim] sample:		175.4 time, 140.5 real, 578.3 MB
*     0+    0                           18.0000       18.0000             0.00%
      0     0        cutoff             18.0000       18.0000    12961    0.00%
Elapsed time = 24.28 sec. (20624.82 ticks, tree = 0.01 MB, solutions = 2)

Root node processing (before b&c):
  Real time             =   24.28 sec. (20625.89 ticks)
Parallel b&c, 12 threads:
  Real time             =    0.00 sec. (0.00 ticks)
  Sync time (average)   =    0.00 sec.
  Wait time (average)   =    0.00 sec.
                          ------------
Total (root+branch&cut) =   24.28 sec. (20625.89 ticks)
Solution :
{380, 142, 792, 554, 456, 694, 254, 16, 16, 254, 380, 142, 478, 240, 652, 414, 16, 254, 58, 296, 554, 792, 296, 58, 58, 296, 30, 268, 778, 540, 652, 414, 554, 792, 142, 380, 142, 380, 296, 58, 792, 554, 554, 792, 652, 414, 554, 792, 30, 268, 478, 240, 554, 792, 540, 778, 778, 540, 540, 778, 380, 142, 414, 652, 380, 142, 296, 58, 58, 296, 58, 296, 414, 652, 414, 652, 30, 268, 16, 254, 58, 296, 16, 254, 142, 380, 58, 296, 778, 540, 58, 296, 540, 778, 268, 30, 30, 268, 254, 16, 296, 58, 792, 554, 652, 414, 142, 380, 778, 540, 778, 540, 296, 58, 554, 792, 478, 240, 58, 296, 456, 694, 414, 652, 554, 792, 30, 268, 478, 240, 380, 142, 16, 254, 142, 380, 380, 142, 296, 58, 254, 16, 30, 268, 778, 540, 30, 268, 652, 414, 268, 30, 414, 652, 414, 652, 414, 652, 380, 142, 30, 268, 296, 58, 254, 16, 540, 778, 268, 30, 792, 554, 414, 652, 268, 30, 380, 142, 778, 540, 652, 414, 254, 16, 414, 652, 58, 296, 58, 296, 268, 30, 296, 58, 554, 792, 554, 792, 652, 414, 792, 554, 778, 540, 380, 142, 296, 58, 540, 778, 456, 694, 652, 414, 694, 456, 30, 268, 652, 414, 296, 58, 58, 296, 652, 414, 268, 30, 142, 380, 792, 554, 792, 554, 30, 268, 540, 778, 30, 268, 778, 540, 554, 792, 16, 254, 414, 652, 778, 540, 16, 254, 478, 240, 694, 456, 268, 30, 778, 540, 540, 778, 380, 142, 380, 142, 30, 268, 792, 554, 652, 414, 414, 652, 652, 414, 296, 58, 380, 142, 16, 254, 778, 540, 380, 142, 16, 254, 778, 540, 58, 296, 414, 652, 554, 792, 142, 380, 30, 268, 652, 414, 142, 380, 254, 16, 142, 380, 652, 414, 268, 30, 240, 478, 30, 268, 254, 16, 240, 478, 414, 652, 16, 254, 778, 540, 792, 554, 296, 58, 478, 240, 554, 792, 652, 414, 240, 478, 540, 778, 268, 30, 380, 142, 142, 380, 58, 296, 792, 554, 254, 16, 414, 652, 16, 254, 58, 296, 240, 478, 380, 142, 540, 778, 16, 254, 58, 296, 540, 778, 380, 142, 478, 240, 16, 254, 694, 456, 414, 652, 30, 268, 254, 16, 380, 142, 652, 414, 694, 456, 30, 268, 778, 540, 142, 380, 30, 268, 540, 778, 652, 414, 456, 694, 380, 142, 554, 792, 142, 380, 254, 16, 792, 554, 380, 142, 792, 554, 652, 414, 478, 240, 296, 58, 380, 142, 254, 16, 554, 792, 652, 414, 778, 540, 456, 694, 414, 652, 414, 652, 268, 30, 268, 30, 380, 142, 792, 554, 58, 296, 142, 380, 554, 792, 778, 540, 778, 540, 414, 652, 456, 694, 296, 58, 778, 540, 554, 792, 792, 554, 778, 540, 240, 478, 268, 30, 380, 142, 16, 254, 456, 694, 694, 456, 268, 30, 540, 778, 142, 380, 380, 142, 58, 296, 380, 142, 142, 380, 792, 554, 380, 142, 540, 778, 30, 268, 792, 554, 58, 296, 142, 380, 414, 652, 268, 30, 694, 456, 792, 554, 296, 58, 16, 254, 58, 296, 142, 380, 792, 554, 792, 554, 380, 142, 296, 58, 778, 540, 142, 380, 554, 792, 694, 456, 30, 268, 30, 268, 254, 16, 792, 554, 792, 554, 778, 540, 254, 16, 778, 540, 554, 792, 30, 268, 380, 142, 30, 268, 456, 694, 554, 792, 254, 16, 380, 142, 30, 268, 16, 254, 268, 30, 254, 16, 58, 296, 240, 478, 58, 296, 16, 254, 778, 540, 414, 652, 540, 778, 58, 296, 58, 296, 268, 30, 554, 792, 380, 142, 540, 778, 268, 30, 58, 296, 240, 478, 240, 478, 540, 778, 540, 778, 456, 694, 240, 478, 414, 652, 58, 296, 16, 254, 268, 30, 540, 778, 414, 652, 694, 456, 296, 58, 16, 254, 456, 694, 380, 142, 254, 16, 142, 380, 142, 380, 792, 554, 30, 268, 414, 652, 554, 792, 778, 540, 58, 296, 652, 414, 554, 792, 142, 380, 296, 58, 254, 16, 694, 456, 414, 652}
Number of labels used: 18
[runlim] end:			Tue Jan 20 19:46:37 2026
[runlim] status:		ok
[runlim] result:		0
[runlim] children:		0
[runlim] real:			147.71 seconds
[runlim] time:			189.77 seconds
[runlim] space:			770.4 MB
[runlim] samples:		1472
